1	14	6	1	4	8	3	7	1	16	10	16	18	16	16	12	19	16	5	5
7	11	16	14	14	13	8	9	20	9	15	13	11	6	14	14	9	17	19	14
12	6	19	5	13	5	17	13	14	11	18	7	16	13	3	4	13	11	18	9
15	7	9	11	9	16	15	6	1	13	11	17	17	13	11	18	13	14	14	14
